%int: n; % Número de días
%int: m; % Número de clientes
%array[1..n, 1..m] of int: demand; % Demanda diaria por cliente y día
%array[1..3] of int: costs; % Costos de producción (N, H, T)
%array[1..3] of int: capacities; % Capacidad diaria (N, H, T)
%array[1..m] of int: Ps; % Pago individual por cliente por MW
%float: min_demand_percentage = 0.50; % Porcentaje mínimo de demanda a cubrir
%float: hydro_max_percentage = 0.80; % Porcentaje máximo de capacidad para hidroeléctrica
%int: hydro_max_consecutive_days = 1; % Días consecutivos máximos a ese porcentaje


% Número de días
n = 5;

% Número de clientes
m = 3;

% Pedidos diarios por tienda y día (suponiendo una semana y  3 cliente)
demand = [| 150,  200, 170
           | 160,  180, 190
           | 155, 205,  165
           | 150,  210, 175
           | 155,  195, 180 |];

% Costos de producción 
costs = [10, 12, 10]; 

% Capacidad diaria 
capacities = [300, 250, 100];

% Pago individual por cliente
Ps = [12, 17, 16]; 

% Porcentaje mínimo de demanda a cubrir
min_demand_percentage = 0.55;

% Porcentaje máximo de capacidad para hidroeléctrica
hydro_max_percentage = 0.85;

% Días consecutivos máximos a ese porcentaje
hydro_max_consecutive_days = 2;


